nNurses = 144;
nHours = 35;
minHours = 10;
maxHours = 14;
maxConsec = 10;
maxPresence = 19;
demand = [10, 14, 9, 10, 8, 11, 12, 16, 17, 14, 12, 9, 8, 10, 15, 10, 13, 12, 16, 12, 13, 15, 18, 19, 15, 14, 10, 9, 6, 11, 7, 12, 17, 21, 26];
